p tw 24 158
0 1
0 2
0 3
0 7
0 10
0 14
0 20
0 15
0 17
0 5
0 12
0 18
0 6
0 11
0 16
1 2
1 7
1 17
1 8
1 21
1 14
1 20
1 12
2 10
2 18
2 3
2 20
2 21
2 22
2 17
2 23
2 11
2 6
2 13
2 19
3 4
3 5
3 10
3 12
3 20
3 6
3 23
3 9
3 18
3 8
3 16
4 5
4 6
4 7
4 10
4 15
4 11
4 8
4 21
4 12
4 17
4 13
4 14
4 22
4 19
5 14
5 15
5 10
5 16
5 9
5 11
5 19
5 22
5 12
5 7
5 21
5 8
6 7
6 10
6 17
6 11
6 8
6 14
6 19
6 22
6 23
6 16
6 20
7 11
7 10
7 17
7 9
7 16
7 15
7 13
7 14
8 9
8 10
8 14
8 21
8 16
8 17
9 10
9 11
9 12
9 16
9 13
9 21
9 14
9 23
9 15
9 19
9 18
9 17
9 22
10 12
10 13
10 16
10 17
10 18
10 15
10 14
10 22
10 11
11 12
11 21
11 17
11 18
11 19
11 15
12 13
12 14
12 15
12 17
12 16
12 21
12 22
12 20
13 15
13 17
13 21
13 14
13 20
13 19
14 15
14 20
14 17
14 18
14 23
14 21
14 22
15 19
15 20
15 17
15 23
17 23
17 18
17 21
19 20
19 22
19 21
20 23
21 22
